letting n_nurses=25
letting n_days=7
letting n_shift_types=4
letting max_covers=11
letting t_covers=61
letting covers=[11,1,4,0,1,0,0,0,6,8,0,0,9,7,0,0,5,9,0,0,0,0,0,0,0,0,0,0]
letting prefes=[1,1,2,3,4,1,1,1,2,1,1,4,1,1,2,3,4,1,1,1,4,1,1,1,2,1,1,4,2,1,1,3,1,2,2,1,2,1,1,4,2,1,1,3,1,2,2,1,1,2,2,1,2,1,1,4,2,1,1,3,4,1,1,3,2,1,1,4,2,1,1,3,4,1,1,3,4,1,1,3,2,1,1,4,2,1,1,3,4,2,1,3,2,1,1,4,2,1,1,3,4,2,1,3,4,2,1,3,2,1,1,4,2,4,1,3,4,2,1,3,2,1,1,4,2,4,1,3,4,2,1,3,4,2,1,3,2,1,1,4,2,1,1,4,4,2,1,3,2,1,1,4,2,1,1,4,4,2,1,3,4,2,1,3,2,1,1,4,2,1,1,3,4,2,1,3,2,1,1,4,2,1,1,3,4,2,1,3,4,2,1,3,2,1,1,4,2,4,1,3,4,2,2,3,2,3,1,4,2,4,1,3,4,2,2,3,4,2,2,3,2,3,1,4,2,1,1,3,1,2,1,3,1,1,2,4,2,1,1,3,1,2,1,3,1,2,1,3,1,1,2,4,2,1,1,3,4,2,1,3,1,1,2,4,2,1,1,3,4,2,1,3,4,2,1,3,1,1,2,4,2,4,1,3,1,2,1,1,1,3,2,4,2,4,1,3,1,2,1,1,1,2,1,1,1,3,2,4,2,1,1,3,4,2,2,3,2,1,1,4,2,1,1,3,4,2,2,3,4,2,2,3,2,1,1,4,1,1,2,4,1,1,1,3,2,3,1,4,1,1,2,4,1,1,1,3,1,1,1,3,2,3,1,4,1,1,2,3,1,2,1,1,2,3,1,4,1,1,2,3,1,2,1,1,1,2,1,1,2,3,1,4,2,1,1,3,4,2,1,3,2,1,1,3,2,1,1,3,4,2,1,3,4,2,1,3,2,1,1,3,2,1,1,3,4,1,1,3,2,1,1,3,2,1,1,3,4,1,1,3,4,1,1,3,2,1,1,3,1,1,2,4,4,2,1,3,2,1,1,3,1,1,2,4,4,2,1,3,4,2,1,3,2,1,1,3,2,1,1,3,4,2,1,1,2,1,1,4,2,1,1,3,4,2,1,1,4,2,1,1,2,1,1,4,2,4,1,3,4,2,1,3,2,1,1,3,2,4,1,3,4,2,1,3,4,2,1,3,2,1,1,3,2,1,1,3,4,2,1,3,1,1,2,3,2,1,1,3,4,2,1,3,4,2,1,3,1,1,2,3,2,4,1,3,4,2,1,3,2,1,1,4,2,4,1,3,4,2,1,3,4,2,1,3,2,1,1,4,2,1,1,4,4,2,1,3,1,1,2,4,2,1,1,4,4,2,1,3,4,2,1,3,1,1,2,4,1,1,2,3,4,2,2,3,2,1,1,4,1,1,2,3,4,2,2,3,4,2,2,3,2,1,1,4,2,1,1,4,4,2,2,3,2,3,1,4,2,1,1,4,4,2,2,3,4,2,2,3,2,3,1,4,2,1,1,3,4,1,1,3,2,1,1,4,2,1,1,3,4,1,1,3,4,1,1,3,2,1,1,4]
letting ub =  272
